\ENCODING=ISO-8859-1
\Problem name: IloCplex

Minimize
 obj1: 2 x_a_0 + 3 x_a_1 + 2 x_a_2 + 2 x_a_3 + x_a_4 + x_a_5 + 2 x_a_6
       + 2 x_a_7 + 3 x_a_8 + x_a_9 + 2 x_a_10 + x_a_11 + 3 x_a_12 + x_a_13
       + x_a_14 + 2 x_a_15 + 2 x_a_16 + x_a_17 + x_a_18 + 2 x_a_19 + x_a_20
       + x_a_21 + 2 x_a_22 + 2 x_a_23 + 3 x_a_24 + x_a_25 + 2 x_a_26 + 3 x_a_27
       + 2 x_a_28 + 2 x_a_29 + x_a_30 + 2 x_a_31 + 2 x_a_32 + x_a_33 + 2 x_a_34
       + 3 x_a_35 + 3 x_a_36 + 2 x_a_37 + x_a_38 + 2 x_a_39 + x_a_40 + x_a_41
       + 2 x_a_42 + x_a_43 + 3 x_a_44 + x_a_45 + 2 x_a_46 + 3 x_a_47 + 3 x_a_48
       + 2 x_a_49 + 2 x_a_50 + 2 x_a_51 + 3 x_a_52 + x_a_53 + 3 x_a_54
       + 2 x_a_55 + 3 x_a_56 + 2 x_a_57 + x_a_58 + 3 x_a_59 + x_a_60 + x_a_61
       + x_a_62 + x_a_63 + x_a_64 + x_a_65 + 3 x_a_66 + 2 x_a_67 + x_a_68
       + 2 x_a_69 + x_a_70 + 2 x_a_71 + x_a_72 + 3 x_a_73 + 2 x_a_74 + x_a_75
       + 3 x_a_76 + 2 x_a_77 + x_a_78 + 2 x_a_79 + 2 x_a_80 + x_a_81 + x_a_82
       + x_a_83 + x_a_84 + 2 x_a_85 + 1000000000 x_a_86 + 1000000000 x_a_87
       + 1000000000 x_a_88 + 1000000000 x_a_89 + 1000000000 x_a_90
       + 1000000000 x_a_91 + 1000000000 x_a_92 + 1000000000 x_a_93
       + 1000000000 x_a_94 + 1000000000 x_a_95 + 1000000000 x_a_96
       + 1000000000 x_a_97 + 1000000000 x_a_98 + 1000000000 x_a_99
       + 1000000000 x_a_100 + 1000000000 x_a_101 + 10000 x_a_102
Subject To
 c1:   y_a_86 + y_a_87 + y_a_88 + y_a_89 + y_a_90 + y_a_91 + y_a_92 + y_a_93
       <= 69.3
 c2:   y_a_0 + y_a_1 + y_a_2 + y_a_3 + y_a_4  = 0
 c3:   - y_a_87 - y_a_0 + y_a_5 + y_a_6 + y_a_7 + y_a_8 + y_a_9 + y_a_10
       + y_a_11 + y_a_12 + y_a_13  = 0
 c4:   - y_a_5 + y_a_14 + y_a_15 + y_a_16 + y_a_17 + y_a_18 + y_a_94 + y_a_101
        = 0
 c5:   - y_a_6 + y_a_19 + y_a_20 + y_a_21  = 0
 c6:   - y_a_7 + y_a_22 + y_a_23 + y_a_24  = 0
 c7:   - y_a_1 - y_a_8 + y_a_25 + y_a_26 + y_a_27 + y_a_28 + y_a_29 + y_a_30
       + y_a_31 + y_a_100  = 0
 c8:   - y_a_2 - y_a_14 + y_a_32 + y_a_33  = 0
 c9:   - y_a_25 - y_a_32 + y_a_34 + y_a_35 + y_a_36 + y_a_37 + y_a_38 + y_a_39
        = 0
 c10:  - y_a_26 + y_a_40 + y_a_41 + y_a_42 + y_a_43  = 0
 c11:  - y_a_19 + y_a_44 + y_a_97  = 0
 c12:  - y_a_22 + y_a_45 + y_a_46 + y_a_47 + y_a_48  = 0
 c13:  - y_a_9 - y_a_20 + y_a_49 + y_a_50 + y_a_51 + y_a_52  = 0
 c14:  - y_a_88 - y_a_93 - y_a_10 - y_a_49 + y_a_53 + y_a_54  = 0
 c15:  - y_a_34 + y_a_55 + y_a_56 + y_a_57  = 0
 c16:  - y_a_21 - y_a_27 - y_a_35 + y_a_58 + y_a_59 + y_a_96  = 0
 c17:  - y_a_15 - y_a_44 - y_a_45 + y_a_60 + y_a_61 + y_a_62 + y_a_63 + y_a_98
        = 0
 c18:  - y_a_11 - y_a_60 + y_a_64 + y_a_65 + y_a_66 + y_a_67  = 0
 c19:  - y_a_16 - y_a_61 + y_a_68 + y_a_69  = 0
 c20:  - y_a_36 - y_a_46 + y_a_70 + y_a_71 + y_a_72 + y_a_95  = 0
 c21:  - y_a_58 + y_a_99  = 0
 c22:  - y_a_3 - y_a_55  = 0
 c23:  - y_a_12 - y_a_28 + y_a_73 + y_a_74  = 0
 c24:  - y_a_90 - y_a_29 - y_a_53 - y_a_64 - y_a_73 + y_a_75 + y_a_76  = 0
 c25:  - y_a_17 - y_a_59 - y_a_70 + y_a_77  = 0
 c26:  - y_a_71  = 0
 c27:  - y_a_4 - y_a_37 - y_a_65 + y_a_78  = 0
 c28:  - y_a_92 - y_a_13 - y_a_74 + y_a_79  = 0
 c29:  - y_a_38 - y_a_66 - y_a_68  = 0
 c30:  - y_a_91 - y_a_40 - y_a_47 - y_a_62 + y_a_80 + y_a_81 + y_a_82  = 0
 c31:  - y_a_89 - y_a_33 - y_a_41 - y_a_50 - y_a_56 - y_a_79 - y_a_80  = 0
 c32:  - y_a_42 - y_a_77 + y_a_83  = 0
 c33:  - y_a_30 - y_a_48 - y_a_69 - y_a_75 + y_a_84  = 0
 c34:  - y_a_31 - y_a_43 - y_a_57  = 0
 c35:  - y_a_54 - y_a_72 - y_a_81  = 0
 c36:  - y_a_86 - y_a_39 - y_a_76  = 0
 c37:  - y_a_63 - y_a_67 - y_a_84  = 0
 c38:  - y_a_18 - y_a_23 - y_a_51 + y_a_85  = 0
 c39:  - y_a_24 - y_a_52 - y_a_78 - y_a_82 - y_a_83 - y_a_85  = 0
 c40:  y_a_86 + y_a_87 + y_a_88 + y_a_89 + y_a_90 + y_a_91 + y_a_92 + y_a_93
       - y_a_102  = 0
 c41:  - y_a_94 - y_a_101 - y_a_100 - y_a_97 - y_a_96 - y_a_98 - y_a_95
       - y_a_99 + y_a_102  = 0
 c42:  y_a_0 + 7 x_a_0 <= 7
 c43:  y_a_1 + 19 x_a_1 <= 19
 c44:  y_a_2 + 33 x_a_2 <= 33
 c45:  y_a_3 + 47 x_a_3 <= 47
 c46:  y_a_4 + 39 x_a_4 <= 39
 c47:  y_a_5 + 6 x_a_5 <= 6
 c48:  y_a_6 + 41 x_a_6 <= 41
 c49:  y_a_7 + 6 x_a_7 <= 6
 c50:  y_a_8 + 24 x_a_8 <= 24
 c51:  y_a_9 + 26 x_a_9 <= 26
 c52:  y_a_10 + 46 x_a_10 <= 46
 c53:  y_a_11 + 14 x_a_11 <= 14
 c54:  y_a_12 + 11 x_a_12 <= 11
 c55:  y_a_13 + 35 x_a_13 <= 35
 c56:  y_a_14 + 44 x_a_14 <= 44
 c57:  y_a_15 + 39 x_a_15 <= 39
 c58:  y_a_16 + 30 x_a_16 <= 30
 c59:  y_a_17 + 42 x_a_17 <= 42
 c60:  y_a_18 + 33 x_a_18 <= 33
 c61:  y_a_19 + 43 x_a_19 <= 43
 c62:  y_a_20 + 31 x_a_20 <= 31
 c63:  y_a_21 + 13 x_a_21 <= 13
 c64:  y_a_22 + 28 x_a_22 <= 28
 c65:  y_a_23 + 3 x_a_23 <= 3
 c66:  y_a_24 + 15 x_a_24 <= 15
 c67:  y_a_25 + 12 x_a_25 <= 12
 c68:  y_a_26 + 9 x_a_26 <= 9
 c69:  y_a_27 + 9 x_a_27 <= 9
 c70:  y_a_28 + 49 x_a_28 <= 49
 c71:  y_a_29 + 4 x_a_29 <= 4
 c72:  y_a_30 + 33 x_a_30 <= 33
 c73:  y_a_31 + 24 x_a_31 <= 24
 c74:  y_a_32 + 24 x_a_32 <= 24
 c75:  y_a_33 + 4 x_a_33 <= 4
 c76:  y_a_34 + 36 x_a_34 <= 36
 c77:  y_a_35 + 10 x_a_35 <= 10
 c78:  y_a_36 + 13 x_a_36 <= 13
 c79:  y_a_37 + 17 x_a_37 <= 17
 c80:  y_a_38 + 39 x_a_38 <= 39
 c81:  y_a_39 + 19 x_a_39 <= 19
 c82:  y_a_40 + 33 x_a_40 <= 33
 c83:  y_a_41 + 23 x_a_41 <= 23
 c84:  y_a_42 + 20 x_a_42 <= 20
 c85:  y_a_43 + 37 x_a_43 <= 37
 c86:  y_a_44 + 22 x_a_44 <= 22
 c87:  y_a_45 + 44 x_a_45 <= 44
 c88:  y_a_46 + 23 x_a_46 <= 23
 c89:  y_a_47 + 9 x_a_47 <= 9
 c90:  y_a_48 + 2 x_a_48 <= 2
 c91:  y_a_49 + 9 x_a_49 <= 9
 c92:  y_a_50 + 6 x_a_50 <= 6
 c93:  y_a_51 + 12 x_a_51 <= 12
 c94:  y_a_52 + 8 x_a_52 <= 8
 c95:  y_a_53 + 17 x_a_53 <= 17
 c96:  y_a_54 + 14 x_a_54 <= 14
 c97:  y_a_55 + 42 x_a_55 <= 42
 c98:  y_a_56 + 3 x_a_56 <= 3
 c99:  y_a_57 + 17 x_a_57 <= 17
 c100: y_a_58 + 25 x_a_58 <= 25
 c101: y_a_59 + 16 x_a_59 <= 16
 c102: y_a_60 + 3 x_a_60 <= 3
 c103: y_a_61 + 28 x_a_61 <= 28
 c104: y_a_62 + 35 x_a_62 <= 35
 c105: y_a_63 + 17 x_a_63 <= 17
 c106: y_a_64 + 38 x_a_64 <= 38
 c107: y_a_65 + 30 x_a_65 <= 30
 c108: y_a_66 + 2 x_a_66 <= 2
 c109: y_a_67 + 36 x_a_67 <= 36
 c110: y_a_68 + 32 x_a_68 <= 32
 c111: y_a_69 + 6 x_a_69 <= 6
 c112: y_a_70 + 8 x_a_70 <= 8
 c113: y_a_71 + 25 x_a_71 <= 25
 c114: y_a_72 + 21 x_a_72 <= 21
 c115: y_a_73 + 13 x_a_73 <= 13
 c116: y_a_74 + 32 x_a_74 <= 32
 c117: y_a_75 + 19 x_a_75 <= 19
 c118: y_a_76 + 36 x_a_76 <= 36
 c119: y_a_77 + 31 x_a_77 <= 31
 c120: y_a_78 + 24 x_a_78 <= 24
 c121: y_a_79 + 17 x_a_79 <= 17
 c122: y_a_80 + 39 x_a_80 <= 39
 c123: y_a_81 + 33 x_a_81 <= 33
 c124: y_a_82 + 44 x_a_82 <= 44
 c125: y_a_83 + 8 x_a_83 <= 8
 c126: y_a_84 + 42 x_a_84 <= 42
 c127: y_a_85 + 24 x_a_85 <= 24
 c128: y_a_86 + 50000000 x_a_86 <= 50000000
 c129: y_a_87 + 50000000 x_a_87 <= 50000000
 c130: y_a_88 + 50000000 x_a_88 <= 50000000
 c131: y_a_89 + 50000000 x_a_89 <= 50000000
 c132: y_a_90 + 50000000 x_a_90 <= 50000000
 c133: y_a_91 + 50000000 x_a_91 <= 50000000
 c134: y_a_92 + 50000000 x_a_92 <= 50000000
 c135: y_a_93 + 50000000 x_a_93 <= 50000000
 c136: y_a_94 + 50000000 x_a_94 <= 50000000
 c137: y_a_95 + 50000000 x_a_95 <= 50000000
 c138: y_a_96 + 50000000 x_a_96 <= 50000000
 c139: y_a_97 + 50000000 x_a_97 <= 50000000
 c140: y_a_98 + 50000000 x_a_98 <= 50000000
 c141: y_a_99 + 50000000 x_a_99 <= 50000000
 c142: y_a_100 + 50000000 x_a_100 <= 50000000
 c143: y_a_101 + 50000000 x_a_101 <= 50000000
 c144: y_a_102 + 10000 x_a_102 <= 10000
Bounds
 0 <= x_a_0 <= 1
 0 <= x_a_1 <= 1
 0 <= x_a_2 <= 1
 0 <= x_a_3 <= 1
 0 <= x_a_4 <= 1
 0 <= x_a_5 <= 1
 0 <= x_a_6 <= 1
 0 <= x_a_7 <= 1
 0 <= x_a_8 <= 1
 0 <= x_a_9 <= 1
 0 <= x_a_10 <= 1
 0 <= x_a_11 <= 1
 0 <= x_a_12 <= 1
 0 <= x_a_13 <= 1
 0 <= x_a_14 <= 1
 0 <= x_a_15 <= 1
 0 <= x_a_16 <= 1
 0 <= x_a_17 <= 1
 0 <= x_a_18 <= 1
 0 <= x_a_19 <= 1
 0 <= x_a_20 <= 1
 0 <= x_a_21 <= 1
 0 <= x_a_22 <= 1
 0 <= x_a_23 <= 1
 0 <= x_a_24 <= 1
 0 <= x_a_25 <= 1
 0 <= x_a_26 <= 1
 0 <= x_a_27 <= 1
 0 <= x_a_28 <= 1
 0 <= x_a_29 <= 1
 0 <= x_a_30 <= 1
 0 <= x_a_31 <= 1
 0 <= x_a_32 <= 1
 0 <= x_a_33 <= 1
 0 <= x_a_34 <= 1
 0 <= x_a_35 <= 1
 0 <= x_a_36 <= 1
 0 <= x_a_37 <= 1
 0 <= x_a_38 <= 1
 0 <= x_a_39 <= 1
 0 <= x_a_40 <= 1
 0 <= x_a_41 <= 1
 0 <= x_a_42 <= 1
 0 <= x_a_43 <= 1
 0 <= x_a_44 <= 1
 0 <= x_a_45 <= 1
 0 <= x_a_46 <= 1
 0 <= x_a_47 <= 1
 0 <= x_a_48 <= 1
 0 <= x_a_49 <= 1
 0 <= x_a_50 <= 1
 0 <= x_a_51 <= 1
 0 <= x_a_52 <= 1
 0 <= x_a_53 <= 1
 0 <= x_a_54 <= 1
 0 <= x_a_55 <= 1
 0 <= x_a_56 <= 1
 0 <= x_a_57 <= 1
 0 <= x_a_58 <= 1
 0 <= x_a_59 <= 1
 0 <= x_a_60 <= 1
 0 <= x_a_61 <= 1
 0 <= x_a_62 <= 1
 0 <= x_a_63 <= 1
 0 <= x_a_64 <= 1
 0 <= x_a_65 <= 1
 0 <= x_a_66 <= 1
 0 <= x_a_67 <= 1
 0 <= x_a_68 <= 1
 0 <= x_a_69 <= 1
 0 <= x_a_70 <= 1
 0 <= x_a_71 <= 1
 0 <= x_a_72 <= 1
 0 <= x_a_73 <= 1
 0 <= x_a_74 <= 1
 0 <= x_a_75 <= 1
 0 <= x_a_76 <= 1
 0 <= x_a_77 <= 1
 0 <= x_a_78 <= 1
 0 <= x_a_79 <= 1
 0 <= x_a_80 <= 1
 0 <= x_a_81 <= 1
 0 <= x_a_82 <= 1
 0 <= x_a_83 <= 1
 0 <= x_a_84 <= 1
 0 <= x_a_85 <= 1
 0 <= x_a_86 <= 1
 0 <= x_a_87 <= 1
 0 <= x_a_88 <= 1
 0 <= x_a_89 <= 1
 0 <= x_a_90 <= 1
 0 <= x_a_91 <= 1
 0 <= x_a_92 <= 1
 0 <= x_a_93 <= 1
 0 <= x_a_94 <= 1
 0 <= x_a_95 <= 1
 0 <= x_a_96 <= 1
 0 <= x_a_97 <= 1
 0 <= x_a_98 <= 1
 0 <= x_a_99 <= 1
 0 <= x_a_100 <= 1
 0 <= x_a_101 <= 1
 0 <= x_a_102 <= 1
Binaries
 x_a_0  x_a_1  x_a_2  x_a_3  x_a_4  x_a_5  x_a_6  x_a_7  x_a_8  x_a_9  x_a_10 
 x_a_11  x_a_12  x_a_13  x_a_14  x_a_15  x_a_16  x_a_17  x_a_18  x_a_19 
 x_a_20  x_a_21  x_a_22  x_a_23  x_a_24  x_a_25  x_a_26  x_a_27  x_a_28 
 x_a_29  x_a_30  x_a_31  x_a_32  x_a_33  x_a_34  x_a_35  x_a_36  x_a_37 
 x_a_38  x_a_39  x_a_40  x_a_41  x_a_42  x_a_43  x_a_44  x_a_45  x_a_46 
 x_a_47  x_a_48  x_a_49  x_a_50  x_a_51  x_a_52  x_a_53  x_a_54  x_a_55 
 x_a_56  x_a_57  x_a_58  x_a_59  x_a_60  x_a_61  x_a_62  x_a_63  x_a_64 
 x_a_65  x_a_66  x_a_67  x_a_68  x_a_69  x_a_70  x_a_71  x_a_72  x_a_73 
 x_a_74  x_a_75  x_a_76  x_a_77  x_a_78  x_a_79  x_a_80  x_a_81  x_a_82 
 x_a_83  x_a_84  x_a_85  x_a_86  x_a_87  x_a_88  x_a_89  x_a_90  x_a_91 
 x_a_92  x_a_93  x_a_94  x_a_95  x_a_96  x_a_97  x_a_98  x_a_99  x_a_100 
 x_a_101  x_a_102 
End
